
Gurobi 10.0.2 (linux64) logging started Tue 29 Aug 2023 07:07:24 PM -03

Set parameter LogFile to value "/home/ciro/Documents/ftsp-optimizer/Optimization/Data/Logs/burma14_3_1001_1001_2.log"
Gurobi Optimizer version 10.0.2 build v10.0.2rc0 (linux64)

CPU model: Intel(R) Core(TM) i7-7500U CPU @ 2.70GHz, instruction set [SSE2]
Thread count: 2 physical cores, 2 logical processors, using up to 2 threads

Optimize a model with 188 rows, 224 columns and 1054 nonzeros
Model fingerprint: 0x5a765aa8
Variable types: 14 continuous, 210 integer (210 binary)
Coefficient statistics:
  Matrix range     [1e+00, 2e+01]
  Objective range  [2e-01, 1e+01]
  Bounds range     [1e+00, 1e+01]
  RHS range        [1e+00, 1e+01]
Presolve removed 1 rows and 16 columns
Presolve time: 0.01s
Presolved: 187 rows, 208 columns, 2061 nonzeros
Variable types: 13 continuous, 195 integer (195 binary)

Root relaxation: objective 7.719717e+00, 31 iterations, 0.00 seconds (0.00 work units)

    Nodes    |    Current Node    |     Objective Bounds      |     Work
 Expl Unexpl |  Obj  Depth IntInf | Incumbent    BestBd   Gap | It/Node Time

     0     0    7.71972    0   16          -    7.71972      -     -    0s
H    0     0                      42.5963002    7.71972  81.9%     -    0s
     0     0   10.28822    0   15   42.59630   10.28822  75.8%     -    0s
H    0     0                      18.9326642   10.28822  45.7%     -    0s
H    0     0                      14.9499710   10.28822  31.2%     -    0s
     0     0   10.45223    0   15   14.94997   10.45223  30.1%     -    0s
     0     0   10.45223    0   15   14.94997   10.45223  30.1%     -    0s
     0     0   10.59523    0    6   14.94997   10.59523  29.1%     -    0s
     0     0   10.59523    0    6   14.94997   10.59523  29.1%     -    0s
     0     0   10.59523    0    6   14.94997   10.59523  29.1%     -    0s
     0     0   10.59523    0    6   14.94997   10.59523  29.1%     -    0s
     0     0   10.59523    0    6   14.94997   10.59523  29.1%     -    0s
     0     0   10.59523    0    6   14.94997   10.59523  29.1%     -    0s
     0     0   10.61055    0   16   14.94997   10.61055  29.0%     -    0s
     0     0   10.61055    0   23   14.94997   10.61055  29.0%     -    0s
H    0     0                      14.8267654   10.61055  28.4%     -    0s
     0     0   10.61055    0    6   14.82677   10.61055  28.4%     -    0s
     0     0   10.61055    0    6   14.82677   10.61055  28.4%     -    0s
     0     0   10.61055    0    6   14.82677   10.61055  28.4%     -    0s
     0     0   10.61055    0    6   14.82677   10.61055  28.4%     -    0s
     0     2   10.70448    0    6   14.82677   10.70448  27.8%     -    0s
*  452    10              12      14.4416450   12.96713  10.2%   5.8    0s
*  458    10               6      13.9323938   12.96713  6.93%   5.9    0s

Cutting planes:
  Learned: 1
  Gomory: 3
  Implied bound: 12
  MIR: 6
  RLT: 14

Explored 511 nodes (3207 simplex iterations) in 0.33 seconds (0.14 work units)
Thread count was 2 (of 2 available processors)

Solution count 6: 13.9324 14.4416 14.8268 ... 42.5963

Optimal solution found (tolerance 1.00e-04)
Best objective 1.393239382211e+01, best bound 1.393239382211e+01, gap 0.0000%
